185280
67,23,47,30,74,32,46,48,2,33,56,59,80,71,37,1,42,11,41,77,68,24,14,22,54,29,34,26,15,58,27,60,5,82,7,78,50,81,52,3,51,62,40,38,49,64,17,20,12,36,63,44,0,72,53,45,79,8,66,13,69,61,28,9,25,75,76,31,57,73,39,4,21,18,35,65,70,19,16,55,6,10,43
